lab3/b.lp
Minimize
 obj: -2 x1 - x2

Subject To
 c1: 2 x1 + x2 + 2 x3 = 4
 c2: 2 x1 + 3 x2 + x4 = 3
 c3: 4 x1 + x2 + 3 x5 = 5
 c4: x1 + 5 x2 + x6 = 2

Bounds
 x1 >= 0
 x2 >= 0
 x3 >= 0
 x4 >= 0
 x5 >= 0
 x6 >= 0

End
