lab3/results/b.sol
# Solution for model obj
# Objective value = 0
0 0
x1 2.3000000000000025e+01
x2 -3.6000000000000036e+01
x3 6.0000000000000071e+00
